; Benchmark for LTL-sketching problem
(set-logic QF_UF)
(set-info :status unknown)
(declare-fun z_0_0_0 () Bool)
(declare-fun z_0_1_0 () Bool)
(declare-fun z_0_2_0 () Bool)
(declare-fun z_0_3_0 () Bool)
(declare-fun z_0_4_0 () Bool)
(declare-fun z_0_5_0 () Bool)
(declare-fun z_0_6_0 () Bool)
(declare-fun z_0_7_0 () Bool)
(declare-fun z_0_8_0 () Bool)
(declare-fun z_0_9_0 () Bool)
(declare-fun z_0_10_0 () Bool)
(declare-fun z_0_11_0 () Bool)
(declare-fun z_0_12_0 () Bool)
(declare-fun z_0_13_0 () Bool)
(declare-fun z_0_14_0 () Bool)
(declare-fun z_0_15_0 () Bool)
(declare-fun z_0_16_0 () Bool)
(declare-fun z_0_17_0 () Bool)
(declare-fun z_0_18_0 () Bool)
(declare-fun z_0_19_0 () Bool)
(declare-fun z_0_0_1 () Bool)
(declare-fun z_1_0_0 () Bool)
(declare-fun z_0_0_2 () Bool)
(declare-fun z_1_0_1 () Bool)
(declare-fun z_1_0_2 () Bool)
(declare-fun z_0_1_1 () Bool)
(declare-fun z_1_1_0 () Bool)
(declare-fun z_0_1_2 () Bool)
(declare-fun z_1_1_1 () Bool)
(declare-fun z_0_1_3 () Bool)
(declare-fun z_1_1_2 () Bool)
(declare-fun z_0_1_4 () Bool)
(declare-fun z_1_1_3 () Bool)
(declare-fun z_0_1_5 () Bool)
(declare-fun z_1_1_4 () Bool)
(declare-fun z_1_1_5 () Bool)
(declare-fun z_0_2_1 () Bool)
(declare-fun z_1_2_0 () Bool)
(declare-fun z_0_2_2 () Bool)
(declare-fun z_1_2_1 () Bool)
(declare-fun z_0_2_3 () Bool)
(declare-fun z_1_2_2 () Bool)
(declare-fun z_1_2_3 () Bool)
(declare-fun z_0_3_1 () Bool)
(declare-fun z_1_3_0 () Bool)
(declare-fun z_0_3_2 () Bool)
(declare-fun z_1_3_1 () Bool)
(declare-fun z_1_3_2 () Bool)
(declare-fun z_0_4_1 () Bool)
(declare-fun z_1_4_0 () Bool)
(declare-fun z_0_4_2 () Bool)
(declare-fun z_1_4_1 () Bool)
(declare-fun z_0_4_3 () Bool)
(declare-fun z_1_4_2 () Bool)
(declare-fun z_0_4_4 () Bool)
(declare-fun z_1_4_3 () Bool)
(declare-fun z_0_4_5 () Bool)
(declare-fun z_1_4_4 () Bool)
(declare-fun z_1_4_5 () Bool)
(declare-fun z_0_5_1 () Bool)
(declare-fun z_1_5_0 () Bool)
(declare-fun z_0_5_2 () Bool)
(declare-fun z_1_5_1 () Bool)
(declare-fun z_0_5_3 () Bool)
(declare-fun z_1_5_2 () Bool)
(declare-fun z_1_5_3 () Bool)
(declare-fun z_0_6_1 () Bool)
(declare-fun z_1_6_0 () Bool)
(declare-fun z_0_6_2 () Bool)
(declare-fun z_1_6_1 () Bool)
(declare-fun z_1_6_2 () Bool)
(declare-fun z_0_7_1 () Bool)
(declare-fun z_1_7_0 () Bool)
(declare-fun z_0_7_2 () Bool)
(declare-fun z_1_7_1 () Bool)
(declare-fun z_0_7_3 () Bool)
(declare-fun z_1_7_2 () Bool)
(declare-fun z_0_7_4 () Bool)
(declare-fun z_1_7_3 () Bool)
(declare-fun z_0_7_5 () Bool)
(declare-fun z_1_7_4 () Bool)
(declare-fun z_0_7_6 () Bool)
(declare-fun z_1_7_5 () Bool)
(declare-fun z_1_7_6 () Bool)
(declare-fun z_0_8_1 () Bool)
(declare-fun z_1_8_0 () Bool)
(declare-fun z_0_8_2 () Bool)
(declare-fun z_1_8_1 () Bool)
(declare-fun z_1_8_2 () Bool)
(declare-fun z_0_9_1 () Bool)
(declare-fun z_1_9_0 () Bool)
(declare-fun z_0_9_2 () Bool)
(declare-fun z_1_9_1 () Bool)
(declare-fun z_1_9_2 () Bool)
(declare-fun z_0_10_1 () Bool)
(declare-fun z_1_10_0 () Bool)
(declare-fun z_0_10_2 () Bool)
(declare-fun z_1_10_1 () Bool)
(declare-fun z_0_10_3 () Bool)
(declare-fun z_1_10_2 () Bool)
(declare-fun z_0_10_4 () Bool)
(declare-fun z_1_10_3 () Bool)
(declare-fun z_0_10_5 () Bool)
(declare-fun z_1_10_4 () Bool)
(declare-fun z_1_10_5 () Bool)
(declare-fun z_0_11_1 () Bool)
(declare-fun z_1_11_0 () Bool)
(declare-fun z_0_11_2 () Bool)
(declare-fun z_1_11_1 () Bool)
(declare-fun z_0_11_3 () Bool)
(declare-fun z_1_11_2 () Bool)
(declare-fun z_0_11_4 () Bool)
(declare-fun z_1_11_3 () Bool)
(declare-fun z_0_11_5 () Bool)
(declare-fun z_1_11_4 () Bool)
(declare-fun z_1_11_5 () Bool)
(declare-fun z_0_12_1 () Bool)
(declare-fun z_1_12_0 () Bool)
(declare-fun z_0_12_2 () Bool)
(declare-fun z_1_12_1 () Bool)
(declare-fun z_0_12_3 () Bool)
(declare-fun z_1_12_2 () Bool)
(declare-fun z_0_12_4 () Bool)
(declare-fun z_1_12_3 () Bool)
(declare-fun z_0_12_5 () Bool)
(declare-fun z_1_12_4 () Bool)
(declare-fun z_1_12_5 () Bool)
(declare-fun z_0_13_1 () Bool)
(declare-fun z_1_13_0 () Bool)
(declare-fun z_0_13_2 () Bool)
(declare-fun z_1_13_1 () Bool)
(declare-fun z_0_13_3 () Bool)
(declare-fun z_1_13_2 () Bool)
(declare-fun z_0_13_4 () Bool)
(declare-fun z_1_13_3 () Bool)
(declare-fun z_0_13_5 () Bool)
(declare-fun z_1_13_4 () Bool)
(declare-fun z_0_13_6 () Bool)
(declare-fun z_1_13_5 () Bool)
(declare-fun z_0_13_7 () Bool)
(declare-fun z_1_13_6 () Bool)
(declare-fun z_1_13_7 () Bool)
(declare-fun z_0_14_1 () Bool)
(declare-fun z_1_14_0 () Bool)
(declare-fun z_0_14_2 () Bool)
(declare-fun z_1_14_1 () Bool)
(declare-fun z_0_14_3 () Bool)
(declare-fun z_1_14_2 () Bool)
(declare-fun z_1_14_3 () Bool)
(declare-fun z_0_15_1 () Bool)
(declare-fun z_1_15_0 () Bool)
(declare-fun z_0_15_2 () Bool)
(declare-fun z_1_15_1 () Bool)
(declare-fun z_0_15_3 () Bool)
(declare-fun z_1_15_2 () Bool)
(declare-fun z_0_15_4 () Bool)
(declare-fun z_1_15_3 () Bool)
(declare-fun z_1_15_4 () Bool)
(declare-fun z_0_16_1 () Bool)
(declare-fun z_1_16_0 () Bool)
(declare-fun z_0_16_2 () Bool)
(declare-fun z_1_16_1 () Bool)
(declare-fun z_0_16_3 () Bool)
(declare-fun z_1_16_2 () Bool)
(declare-fun z_0_16_4 () Bool)
(declare-fun z_1_16_3 () Bool)
(declare-fun z_1_16_4 () Bool)
(declare-fun z_0_17_1 () Bool)
(declare-fun z_1_17_0 () Bool)
(declare-fun z_0_17_2 () Bool)
(declare-fun z_1_17_1 () Bool)
(declare-fun z_0_17_3 () Bool)
(declare-fun z_1_17_2 () Bool)
(declare-fun z_0_17_4 () Bool)
(declare-fun z_1_17_3 () Bool)
(declare-fun z_1_17_4 () Bool)
(declare-fun z_0_18_1 () Bool)
(declare-fun z_1_18_0 () Bool)
(declare-fun z_0_18_2 () Bool)
(declare-fun z_1_18_1 () Bool)
(declare-fun z_0_18_3 () Bool)
(declare-fun z_1_18_2 () Bool)
(declare-fun z_1_18_3 () Bool)
(declare-fun z_0_19_1 () Bool)
(declare-fun z_1_19_0 () Bool)
(declare-fun z_0_19_2 () Bool)
(declare-fun z_1_19_1 () Bool)
(declare-fun z_0_19_3 () Bool)
(declare-fun z_1_19_2 () Bool)
(declare-fun z_0_19_4 () Bool)
(declare-fun z_1_19_3 () Bool)
(declare-fun z_1_19_4 () Bool)
(declare-fun z_4_0_0 () Bool)
(declare-fun z_2_0_0 () Bool)
(declare-fun z_4_0_1 () Bool)
(declare-fun z_2_0_1 () Bool)
(declare-fun z_4_0_2 () Bool)
(declare-fun z_2_0_2 () Bool)
(declare-fun z_4_1_0 () Bool)
(declare-fun z_2_1_0 () Bool)
(declare-fun z_4_1_1 () Bool)
(declare-fun z_2_1_1 () Bool)
(declare-fun z_4_1_2 () Bool)
(declare-fun z_2_1_2 () Bool)
(declare-fun z_4_1_3 () Bool)
(declare-fun z_2_1_3 () Bool)
(declare-fun z_4_1_4 () Bool)
(declare-fun z_2_1_4 () Bool)
(declare-fun z_4_1_5 () Bool)
(declare-fun z_2_1_5 () Bool)
(declare-fun z_4_2_0 () Bool)
(declare-fun z_2_2_0 () Bool)
(declare-fun z_4_2_1 () Bool)
(declare-fun z_2_2_1 () Bool)
(declare-fun z_4_2_2 () Bool)
(declare-fun z_2_2_2 () Bool)
(declare-fun z_4_2_3 () Bool)
(declare-fun z_2_2_3 () Bool)
(declare-fun z_4_3_0 () Bool)
(declare-fun z_2_3_0 () Bool)
(declare-fun z_4_3_1 () Bool)
(declare-fun z_2_3_1 () Bool)
(declare-fun z_4_3_2 () Bool)
(declare-fun z_2_3_2 () Bool)
(declare-fun z_4_4_0 () Bool)
(declare-fun z_2_4_0 () Bool)
(declare-fun z_4_4_1 () Bool)
(declare-fun z_2_4_1 () Bool)
(declare-fun z_4_4_2 () Bool)
(declare-fun z_2_4_2 () Bool)
(declare-fun z_4_4_3 () Bool)
(declare-fun z_2_4_3 () Bool)
(declare-fun z_4_4_4 () Bool)
(declare-fun z_2_4_4 () Bool)
(declare-fun z_4_4_5 () Bool)
(declare-fun z_2_4_5 () Bool)
(declare-fun z_4_5_0 () Bool)
(declare-fun z_2_5_0 () Bool)
(declare-fun z_4_5_1 () Bool)
(declare-fun z_2_5_1 () Bool)
(declare-fun z_4_5_2 () Bool)
(declare-fun z_2_5_2 () Bool)
(declare-fun z_4_5_3 () Bool)
(declare-fun z_2_5_3 () Bool)
(declare-fun z_4_6_0 () Bool)
(declare-fun z_2_6_0 () Bool)
(declare-fun z_4_6_1 () Bool)
(declare-fun z_2_6_1 () Bool)
(declare-fun z_4_6_2 () Bool)
(declare-fun z_2_6_2 () Bool)
(declare-fun z_4_7_0 () Bool)
(declare-fun z_2_7_0 () Bool)
(declare-fun z_4_7_1 () Bool)
(declare-fun z_2_7_1 () Bool)
(declare-fun z_4_7_2 () Bool)
(declare-fun z_2_7_2 () Bool)
(declare-fun z_4_7_3 () Bool)
(declare-fun z_2_7_3 () Bool)
(declare-fun z_4_7_4 () Bool)
(declare-fun z_2_7_4 () Bool)
(declare-fun z_4_7_5 () Bool)
(declare-fun z_2_7_5 () Bool)
(declare-fun z_4_7_6 () Bool)
(declare-fun z_2_7_6 () Bool)
(declare-fun z_4_8_0 () Bool)
(declare-fun z_2_8_0 () Bool)
(declare-fun z_4_8_1 () Bool)
(declare-fun z_2_8_1 () Bool)
(declare-fun z_4_8_2 () Bool)
(declare-fun z_2_8_2 () Bool)
(declare-fun z_4_9_0 () Bool)
(declare-fun z_2_9_0 () Bool)
(declare-fun z_4_9_1 () Bool)
(declare-fun z_2_9_1 () Bool)
(declare-fun z_4_9_2 () Bool)
(declare-fun z_2_9_2 () Bool)
(declare-fun z_4_10_0 () Bool)
(declare-fun z_2_10_0 () Bool)
(declare-fun z_4_10_1 () Bool)
(declare-fun z_2_10_1 () Bool)
(declare-fun z_4_10_2 () Bool)
(declare-fun z_2_10_2 () Bool)
(declare-fun z_4_10_3 () Bool)
(declare-fun z_2_10_3 () Bool)
(declare-fun z_4_10_4 () Bool)
(declare-fun z_2_10_4 () Bool)
(declare-fun z_4_10_5 () Bool)
(declare-fun z_2_10_5 () Bool)
(declare-fun z_4_11_0 () Bool)
(declare-fun z_2_11_0 () Bool)
(declare-fun z_4_11_1 () Bool)
(declare-fun z_2_11_1 () Bool)
(declare-fun z_4_11_2 () Bool)
(declare-fun z_2_11_2 () Bool)
(declare-fun z_4_11_3 () Bool)
(declare-fun z_2_11_3 () Bool)
(declare-fun z_4_11_4 () Bool)
(declare-fun z_2_11_4 () Bool)
(declare-fun z_4_11_5 () Bool)
(declare-fun z_2_11_5 () Bool)
(declare-fun z_4_12_0 () Bool)
(declare-fun z_2_12_0 () Bool)
(declare-fun z_4_12_1 () Bool)
(declare-fun z_2_12_1 () Bool)
(declare-fun z_4_12_2 () Bool)
(declare-fun z_2_12_2 () Bool)
(declare-fun z_4_12_3 () Bool)
(declare-fun z_2_12_3 () Bool)
(declare-fun z_4_12_4 () Bool)
(declare-fun z_2_12_4 () Bool)
(declare-fun z_4_12_5 () Bool)
(declare-fun z_2_12_5 () Bool)
(declare-fun z_4_13_0 () Bool)
(declare-fun z_2_13_0 () Bool)
(declare-fun z_4_13_1 () Bool)
(declare-fun z_2_13_1 () Bool)
(declare-fun z_4_13_2 () Bool)
(declare-fun z_2_13_2 () Bool)
(declare-fun z_4_13_3 () Bool)
(declare-fun z_2_13_3 () Bool)
(declare-fun z_4_13_4 () Bool)
(declare-fun z_2_13_4 () Bool)
(declare-fun z_4_13_5 () Bool)
(declare-fun z_2_13_5 () Bool)
(declare-fun z_4_13_6 () Bool)
(declare-fun z_2_13_6 () Bool)
(declare-fun z_4_13_7 () Bool)
(declare-fun z_2_13_7 () Bool)
(declare-fun z_4_14_0 () Bool)
(declare-fun z_2_14_0 () Bool)
(declare-fun z_4_14_1 () Bool)
(declare-fun z_2_14_1 () Bool)
(declare-fun z_4_14_2 () Bool)
(declare-fun z_2_14_2 () Bool)
(declare-fun z_4_14_3 () Bool)
(declare-fun z_2_14_3 () Bool)
(declare-fun z_4_15_0 () Bool)
(declare-fun z_2_15_0 () Bool)
(declare-fun z_4_15_1 () Bool)
(declare-fun z_2_15_1 () Bool)
(declare-fun z_4_15_2 () Bool)
(declare-fun z_2_15_2 () Bool)
(declare-fun z_4_15_3 () Bool)
(declare-fun z_2_15_3 () Bool)
(declare-fun z_4_15_4 () Bool)
(declare-fun z_2_15_4 () Bool)
(declare-fun z_4_16_0 () Bool)
(declare-fun z_2_16_0 () Bool)
(declare-fun z_4_16_1 () Bool)
(declare-fun z_2_16_1 () Bool)
(declare-fun z_4_16_2 () Bool)
(declare-fun z_2_16_2 () Bool)
(declare-fun z_4_16_3 () Bool)
(declare-fun z_2_16_3 () Bool)
(declare-fun z_4_16_4 () Bool)
(declare-fun z_2_16_4 () Bool)
(declare-fun z_4_17_0 () Bool)
(declare-fun z_2_17_0 () Bool)
(declare-fun z_4_17_1 () Bool)
(declare-fun z_2_17_1 () Bool)
(declare-fun z_4_17_2 () Bool)
(declare-fun z_2_17_2 () Bool)
(declare-fun z_4_17_3 () Bool)
(declare-fun z_2_17_3 () Bool)
(declare-fun z_4_17_4 () Bool)
(declare-fun z_2_17_4 () Bool)
(declare-fun z_4_18_0 () Bool)
(declare-fun z_2_18_0 () Bool)
(declare-fun z_4_18_1 () Bool)
(declare-fun z_2_18_1 () Bool)
(declare-fun z_4_18_2 () Bool)
(declare-fun z_2_18_2 () Bool)
(declare-fun z_4_18_3 () Bool)
(declare-fun z_2_18_3 () Bool)
(declare-fun z_4_19_0 () Bool)
(declare-fun z_2_19_0 () Bool)
(declare-fun z_4_19_1 () Bool)
(declare-fun z_2_19_1 () Bool)
(declare-fun z_4_19_2 () Bool)
(declare-fun z_2_19_2 () Bool)
(declare-fun z_4_19_3 () Bool)
(declare-fun z_2_19_3 () Bool)
(declare-fun z_4_19_4 () Bool)
(declare-fun z_2_19_4 () Bool)
(declare-fun x_4_q () Bool)
(declare-fun x_4_p () Bool)
(declare-fun x_4_-> () Bool)
(declare-fun x_4_U () Bool)
(declare-fun x_4_v () Bool)
(declare-fun x_4_& () Bool)
(declare-fun x_4_X () Bool)
(declare-fun x_4_! () Bool)
(declare-fun x_4_F () Bool)
(declare-fun x_4_G () Bool)
(assert
 (= z_0_0_0 true))
(assert
 (= z_0_1_0 true))
(assert
 (= z_0_2_0 true))
(assert
 (= z_0_3_0 true))
(assert
 (= z_0_4_0 true))
(assert
 (= z_0_5_0 true))
(assert
 (= z_0_6_0 true))
(assert
 (= z_0_7_0 true))
(assert
 (= z_0_8_0 true))
(assert
 (= z_0_9_0 true))
(assert
 (= z_0_10_0 false))
(assert
 (= z_0_11_0 false))
(assert
 (= z_0_12_0 false))
(assert
 (= z_0_13_0 false))
(assert
 (= z_0_14_0 false))
(assert
 (= z_0_15_0 false))
(assert
 (= z_0_16_0 false))
(assert
 (= z_0_17_0 false))
(assert
 (= z_0_18_0 false))
(assert
 (= z_0_19_0 false))
(assert
 (= z_0_0_0 (and z_1_0_0 z_0_0_1)))
(assert
 (= z_0_0_1 (and z_1_0_1 z_0_0_2)))
(assert
 (= z_0_0_2 (and z_1_0_2)))
(assert
 (= z_0_1_0 (and z_1_1_0 z_0_1_1)))
(assert
 (= z_0_1_1 (and z_1_1_1 z_0_1_2)))
(assert
 (= z_0_1_2 (and z_1_1_2 z_0_1_3)))
(assert
 (= z_0_1_3 (and z_1_1_3 z_0_1_4)))
(assert
 (= z_0_1_4 (and z_1_1_4 z_0_1_5)))
(assert
 (= z_0_1_5 (and z_1_1_4 z_1_1_5)))
(assert
 (= z_0_2_0 (and z_1_2_0 z_0_2_1)))
(assert
 (= z_0_2_1 (and z_1_2_1 z_0_2_2)))
(assert
 (= z_0_2_2 (and z_1_2_2 z_0_2_3)))
(assert
 (= z_0_2_3 (and z_1_2_2 z_1_2_3)))
(assert
 (= z_0_3_0 (and z_1_3_0 z_0_3_1)))
(assert
 (= z_0_3_1 (and z_1_3_1 z_0_3_2)))
(assert
 (= z_0_3_2 (and z_1_3_1 z_1_3_2)))
(assert
 (= z_0_4_0 (and z_1_4_0 z_0_4_1)))
(assert
 (= z_0_4_1 (and z_1_4_1 z_0_4_2)))
(assert
 (= z_0_4_2 (and z_1_4_2 z_0_4_3)))
(assert
 (= z_0_4_3 (and z_1_4_3 z_0_4_4)))
(assert
 (= z_0_4_4 (and z_1_4_4 z_0_4_5)))
(assert
 (= z_0_4_5 (and z_1_4_2 z_1_4_3 z_1_4_4 z_1_4_5)))
(assert
 (= z_0_5_0 (and z_1_5_0 z_0_5_1)))
(assert
 (= z_0_5_1 (and z_1_5_1 z_0_5_2)))
(assert
 (= z_0_5_2 (and z_1_5_2 z_0_5_3)))
(assert
 (= z_0_5_3 (and z_1_5_2 z_1_5_3)))
(assert
 (= z_0_6_0 (and z_1_6_0 z_0_6_1)))
(assert
 (= z_0_6_1 (and z_1_6_1 z_0_6_2)))
(assert
 (= z_0_6_2 (and z_1_6_2)))
(assert
 (= z_0_7_0 (and z_1_7_0 z_0_7_1)))
(assert
 (= z_0_7_1 (and z_1_7_1 z_0_7_2)))
(assert
 (= z_0_7_2 (and z_1_7_2 z_0_7_3)))
(assert
 (= z_0_7_3 (and z_1_7_3 z_0_7_4)))
(assert
 (= z_0_7_4 (and z_1_7_4 z_0_7_5)))
(assert
 (= z_0_7_5 (and z_1_7_5 z_0_7_6)))
(assert
 (= z_0_7_6 (and z_1_7_3 z_1_7_4 z_1_7_5 z_1_7_6)))
(assert
 (= z_0_8_0 (and z_1_8_0 z_0_8_1)))
(assert
 (= z_0_8_1 (and z_1_8_1 z_0_8_2)))
(assert
 (= z_0_8_2 (and z_1_8_1 z_1_8_2)))
(assert
 (= z_0_9_0 (and z_1_9_0 z_0_9_1)))
(assert
 (= z_0_9_1 (and z_1_9_1 z_0_9_2)))
(assert
 (= z_0_9_2 (and z_1_9_2)))
(assert
 (= z_0_10_0 (and z_1_10_0 z_0_10_1)))
(assert
 (= z_0_10_1 (and z_1_10_1 z_0_10_2)))
(assert
 (= z_0_10_2 (and z_1_10_2 z_0_10_3)))
(assert
 (= z_0_10_3 (and z_1_10_3 z_0_10_4)))
(assert
 (= z_0_10_4 (and z_1_10_4 z_0_10_5)))
(assert
 (= z_0_10_5 (and z_1_10_2 z_1_10_3 z_1_10_4 z_1_10_5)))
(assert
 (= z_0_11_0 (and z_1_11_0 z_0_11_1)))
(assert
 (= z_0_11_1 (and z_1_11_1 z_0_11_2)))
(assert
 (= z_0_11_2 (and z_1_11_2 z_0_11_3)))
(assert
 (= z_0_11_3 (and z_1_11_3 z_0_11_4)))
(assert
 (= z_0_11_4 (and z_1_11_4 z_0_11_5)))
(assert
 (= z_0_11_5 (and z_1_11_4 z_1_11_5)))
(assert
 (= z_0_12_0 (and z_1_12_0 z_0_12_1)))
(assert
 (= z_0_12_1 (and z_1_12_1 z_0_12_2)))
(assert
 (= z_0_12_2 (and z_1_12_2 z_0_12_3)))
(assert
 (= z_0_12_3 (and z_1_12_3 z_0_12_4)))
(assert
 (= z_0_12_4 (and z_1_12_4 z_0_12_5)))
(assert
 (= z_0_12_5 (and z_1_12_3 z_1_12_4 z_1_12_5)))
(assert
 (= z_0_13_0 (and z_1_13_0 z_0_13_1)))
(assert
 (= z_0_13_1 (and z_1_13_1 z_0_13_2)))
(assert
 (= z_0_13_2 (and z_1_13_2 z_0_13_3)))
(assert
 (= z_0_13_3 (and z_1_13_3 z_0_13_4)))
(assert
 (= z_0_13_4 (and z_1_13_4 z_0_13_5)))
(assert
 (= z_0_13_5 (and z_1_13_5 z_0_13_6)))
(assert
 (= z_0_13_6 (and z_1_13_6 z_0_13_7)))
(assert
 (= z_0_13_7 (and z_1_13_4 z_1_13_5 z_1_13_6 z_1_13_7)))
(assert
 (= z_0_14_0 (and z_1_14_0 z_0_14_1)))
(assert
 (= z_0_14_1 (and z_1_14_1 z_0_14_2)))
(assert
 (= z_0_14_2 (and z_1_14_2 z_0_14_3)))
(assert
 (= z_0_14_3 (and z_1_14_2 z_1_14_3)))
(assert
 (= z_0_15_0 (and z_1_15_0 z_0_15_1)))
(assert
 (= z_0_15_1 (and z_1_15_1 z_0_15_2)))
(assert
 (= z_0_15_2 (and z_1_15_2 z_0_15_3)))
(assert
 (= z_0_15_3 (and z_1_15_3 z_0_15_4)))
(assert
 (= z_0_15_4 (and z_1_15_2 z_1_15_3 z_1_15_4)))
(assert
 (= z_0_16_0 (and z_1_16_0 z_0_16_1)))
(assert
 (= z_0_16_1 (and z_1_16_1 z_0_16_2)))
(assert
 (= z_0_16_2 (and z_1_16_2 z_0_16_3)))
(assert
 (= z_0_16_3 (and z_1_16_3 z_0_16_4)))
(assert
 (= z_0_16_4 (and z_1_16_3 z_1_16_4)))
(assert
 (= z_0_17_0 (and z_1_17_0 z_0_17_1)))
(assert
 (= z_0_17_1 (and z_1_17_1 z_0_17_2)))
(assert
 (= z_0_17_2 (and z_1_17_2 z_0_17_3)))
(assert
 (= z_0_17_3 (and z_1_17_3 z_0_17_4)))
(assert
 (= z_0_17_4 (and z_1_17_2 z_1_17_3 z_1_17_4)))
(assert
 (= z_0_18_0 (and z_1_18_0 z_0_18_1)))
(assert
 (= z_0_18_1 (and z_1_18_1 z_0_18_2)))
(assert
 (= z_0_18_2 (and z_1_18_2 z_0_18_3)))
(assert
 (= z_0_18_3 (and z_1_18_3)))
(assert
 (= z_0_19_0 (and z_1_19_0 z_0_19_1)))
(assert
 (= z_0_19_1 (and z_1_19_1 z_0_19_2)))
(assert
 (= z_0_19_2 (and z_1_19_2 z_0_19_3)))
(assert
 (= z_0_19_3 (and z_1_19_3 z_0_19_4)))
(assert
 (= z_0_19_4 (and z_1_19_2 z_1_19_3 z_1_19_4)))
(assert
 (= z_1_0_0 (=> z_2_0_0 z_4_0_0)))
(assert
 (= z_1_0_1 (=> z_2_0_1 z_4_0_1)))
(assert
 (= z_1_0_2 (=> z_2_0_2 z_4_0_2)))
(assert
 (= z_1_1_0 (=> z_2_1_0 z_4_1_0)))
(assert
 (= z_1_1_1 (=> z_2_1_1 z_4_1_1)))
(assert
 (= z_1_1_2 (=> z_2_1_2 z_4_1_2)))
(assert
 (= z_1_1_3 (=> z_2_1_3 z_4_1_3)))
(assert
 (= z_1_1_4 (=> z_2_1_4 z_4_1_4)))
(assert
 (= z_1_1_5 (=> z_2_1_5 z_4_1_5)))
(assert
 (= z_1_2_0 (=> z_2_2_0 z_4_2_0)))
(assert
 (= z_1_2_1 (=> z_2_2_1 z_4_2_1)))
(assert
 (= z_1_2_2 (=> z_2_2_2 z_4_2_2)))
(assert
 (= z_1_2_3 (=> z_2_2_3 z_4_2_3)))
(assert
 (= z_1_3_0 (=> z_2_3_0 z_4_3_0)))
(assert
 (= z_1_3_1 (=> z_2_3_1 z_4_3_1)))
(assert
 (= z_1_3_2 (=> z_2_3_2 z_4_3_2)))
(assert
 (= z_1_4_0 (=> z_2_4_0 z_4_4_0)))
(assert
 (= z_1_4_1 (=> z_2_4_1 z_4_4_1)))
(assert
 (= z_1_4_2 (=> z_2_4_2 z_4_4_2)))
(assert
 (= z_1_4_3 (=> z_2_4_3 z_4_4_3)))
(assert
 (= z_1_4_4 (=> z_2_4_4 z_4_4_4)))
(assert
 (= z_1_4_5 (=> z_2_4_5 z_4_4_5)))
(assert
 (= z_1_5_0 (=> z_2_5_0 z_4_5_0)))
(assert
 (= z_1_5_1 (=> z_2_5_1 z_4_5_1)))
(assert
 (= z_1_5_2 (=> z_2_5_2 z_4_5_2)))
(assert
 (= z_1_5_3 (=> z_2_5_3 z_4_5_3)))
(assert
 (= z_1_6_0 (=> z_2_6_0 z_4_6_0)))
(assert
 (= z_1_6_1 (=> z_2_6_1 z_4_6_1)))
(assert
 (= z_1_6_2 (=> z_2_6_2 z_4_6_2)))
(assert
 (= z_1_7_0 (=> z_2_7_0 z_4_7_0)))
(assert
 (= z_1_7_1 (=> z_2_7_1 z_4_7_1)))
(assert
 (= z_1_7_2 (=> z_2_7_2 z_4_7_2)))
(assert
 (= z_1_7_3 (=> z_2_7_3 z_4_7_3)))
(assert
 (= z_1_7_4 (=> z_2_7_4 z_4_7_4)))
(assert
 (= z_1_7_5 (=> z_2_7_5 z_4_7_5)))
(assert
 (= z_1_7_6 (=> z_2_7_6 z_4_7_6)))
(assert
 (= z_1_8_0 (=> z_2_8_0 z_4_8_0)))
(assert
 (= z_1_8_1 (=> z_2_8_1 z_4_8_1)))
(assert
 (= z_1_8_2 (=> z_2_8_2 z_4_8_2)))
(assert
 (= z_1_9_0 (=> z_2_9_0 z_4_9_0)))
(assert
 (= z_1_9_1 (=> z_2_9_1 z_4_9_1)))
(assert
 (= z_1_9_2 (=> z_2_9_2 z_4_9_2)))
(assert
 (= z_1_10_0 (=> z_2_10_0 z_4_10_0)))
(assert
 (= z_1_10_1 (=> z_2_10_1 z_4_10_1)))
(assert
 (= z_1_10_2 (=> z_2_10_2 z_4_10_2)))
(assert
 (= z_1_10_3 (=> z_2_10_3 z_4_10_3)))
(assert
 (= z_1_10_4 (=> z_2_10_4 z_4_10_4)))
(assert
 (= z_1_10_5 (=> z_2_10_5 z_4_10_5)))
(assert
 (= z_1_11_0 (=> z_2_11_0 z_4_11_0)))
(assert
 (= z_1_11_1 (=> z_2_11_1 z_4_11_1)))
(assert
 (= z_1_11_2 (=> z_2_11_2 z_4_11_2)))
(assert
 (= z_1_11_3 (=> z_2_11_3 z_4_11_3)))
(assert
 (= z_1_11_4 (=> z_2_11_4 z_4_11_4)))
(assert
 (= z_1_11_5 (=> z_2_11_5 z_4_11_5)))
(assert
 (= z_1_12_0 (=> z_2_12_0 z_4_12_0)))
(assert
 (= z_1_12_1 (=> z_2_12_1 z_4_12_1)))
(assert
 (= z_1_12_2 (=> z_2_12_2 z_4_12_2)))
(assert
 (= z_1_12_3 (=> z_2_12_3 z_4_12_3)))
(assert
 (= z_1_12_4 (=> z_2_12_4 z_4_12_4)))
(assert
 (= z_1_12_5 (=> z_2_12_5 z_4_12_5)))
(assert
 (= z_1_13_0 (=> z_2_13_0 z_4_13_0)))
(assert
 (= z_1_13_1 (=> z_2_13_1 z_4_13_1)))
(assert
 (= z_1_13_2 (=> z_2_13_2 z_4_13_2)))
(assert
 (= z_1_13_3 (=> z_2_13_3 z_4_13_3)))
(assert
 (= z_1_13_4 (=> z_2_13_4 z_4_13_4)))
(assert
 (= z_1_13_5 (=> z_2_13_5 z_4_13_5)))
(assert
 (= z_1_13_6 (=> z_2_13_6 z_4_13_6)))
(assert
 (= z_1_13_7 (=> z_2_13_7 z_4_13_7)))
(assert
 (= z_1_14_0 (=> z_2_14_0 z_4_14_0)))
(assert
 (= z_1_14_1 (=> z_2_14_1 z_4_14_1)))
(assert
 (= z_1_14_2 (=> z_2_14_2 z_4_14_2)))
(assert
 (= z_1_14_3 (=> z_2_14_3 z_4_14_3)))
(assert
 (= z_1_15_0 (=> z_2_15_0 z_4_15_0)))
(assert
 (= z_1_15_1 (=> z_2_15_1 z_4_15_1)))
(assert
 (= z_1_15_2 (=> z_2_15_2 z_4_15_2)))
(assert
 (= z_1_15_3 (=> z_2_15_3 z_4_15_3)))
(assert
 (= z_1_15_4 (=> z_2_15_4 z_4_15_4)))
(assert
 (= z_1_16_0 (=> z_2_16_0 z_4_16_0)))
(assert
 (= z_1_16_1 (=> z_2_16_1 z_4_16_1)))
(assert
 (= z_1_16_2 (=> z_2_16_2 z_4_16_2)))
(assert
 (= z_1_16_3 (=> z_2_16_3 z_4_16_3)))
(assert
 (= z_1_16_4 (=> z_2_16_4 z_4_16_4)))
(assert
 (= z_1_17_0 (=> z_2_17_0 z_4_17_0)))
(assert
 (= z_1_17_1 (=> z_2_17_1 z_4_17_1)))
(assert
 (= z_1_17_2 (=> z_2_17_2 z_4_17_2)))
(assert
 (= z_1_17_3 (=> z_2_17_3 z_4_17_3)))
(assert
 (= z_1_17_4 (=> z_2_17_4 z_4_17_4)))
(assert
 (= z_1_18_0 (=> z_2_18_0 z_4_18_0)))
(assert
 (= z_1_18_1 (=> z_2_18_1 z_4_18_1)))
(assert
 (= z_1_18_2 (=> z_2_18_2 z_4_18_2)))
(assert
 (= z_1_18_3 (=> z_2_18_3 z_4_18_3)))
(assert
 (= z_1_19_0 (=> z_2_19_0 z_4_19_0)))
(assert
 (= z_1_19_1 (=> z_2_19_1 z_4_19_1)))
(assert
 (= z_1_19_2 (=> z_2_19_2 z_4_19_2)))
(assert
 (= z_1_19_3 (=> z_2_19_3 z_4_19_3)))
(assert
 (= z_1_19_4 (=> z_2_19_4 z_4_19_4)))
(assert
 z_2_0_0)
(assert
 (not z_2_0_1))
(assert
 z_2_0_2)
(assert
 z_2_1_0)
(assert
 (not z_2_1_1))
(assert
 (not z_2_1_2))
(assert
 z_2_1_3)
(assert
 z_2_1_4)
(assert
 (not z_2_1_5))
(assert
 (not z_2_2_0))
(assert
 z_2_2_1)
(assert
 z_2_2_2)
(assert
 (not z_2_2_3))
(assert
 (not z_2_3_0))
(assert
 z_2_3_1)
(assert
 (not z_2_3_2))
(assert
 (not z_2_4_0))
(assert
 z_2_4_1)
(assert
 (not z_2_4_2))
(assert
 (not z_2_4_3))
(assert
 z_2_4_4)
(assert
 (not z_2_4_5))
(assert
 (not z_2_5_0))
(assert
 (not z_2_5_1))
(assert
 z_2_5_2)
(assert
 (not z_2_5_3))
(assert
 z_2_6_0)
(assert
 (not z_2_6_1))
(assert
 z_2_6_2)
(assert
 (not z_2_7_0))
(assert
 (not z_2_7_1))
(assert
 z_2_7_2)
(assert
 (not z_2_7_3))
(assert
 z_2_7_4)
(assert
 (not z_2_7_5))
(assert
 (not z_2_7_6))
(assert
 (not z_2_8_0))
(assert
 (not z_2_8_1))
(assert
 z_2_8_2)
(assert
 (not z_2_9_0))
(assert
 (not z_2_9_1))
(assert
 z_2_9_2)
(assert
 z_2_10_0)
(assert
 z_2_10_1)
(assert
 z_2_10_2)
(assert
 z_2_10_3)
(assert
 z_2_10_4)
(assert
 (not z_2_10_5))
(assert
 z_2_11_0)
(assert
 (not z_2_11_1))
(assert
 z_2_11_2)
(assert
 (not z_2_11_3))
(assert
 (not z_2_11_4))
(assert
 z_2_11_5)
(assert
 (not z_2_12_0))
(assert
 z_2_12_1)
(assert
 z_2_12_2)
(assert
 (not z_2_12_3))
(assert
 (not z_2_12_4))
(assert
 z_2_12_5)
(assert
 (not z_2_13_0))
(assert
 (not z_2_13_1))
(assert
 z_2_13_2)
(assert
 (not z_2_13_3))
(assert
 (not z_2_13_4))
(assert
 z_2_13_5)
(assert
 (not z_2_13_6))
(assert
 z_2_13_7)
(assert
 z_2_14_0)
(assert
 z_2_14_1)
(assert
 z_2_14_2)
(assert
 (not z_2_14_3))
(assert
 (not z_2_15_0))
(assert
 (not z_2_15_1))
(assert
 z_2_15_2)
(assert
 (not z_2_15_3))
(assert
 z_2_15_4)
(assert
 z_2_16_0)
(assert
 z_2_16_1)
(assert
 (not z_2_16_2))
(assert
 z_2_16_3)
(assert
 (not z_2_16_4))
(assert
 (not z_2_17_0))
(assert
 z_2_17_1)
(assert
 z_2_17_2)
(assert
 (not z_2_17_3))
(assert
 (not z_2_17_4))
(assert
 (not z_2_18_0))
(assert
 z_2_18_1)
(assert
 (not z_2_18_2))
(assert
 z_2_18_3)
(assert
 z_2_19_0)
(assert
 (not z_2_19_1))
(assert
 z_2_19_2)
(assert
 z_2_19_3)
(assert
 (not z_2_19_4))
(assert
 (let (($x4007 (not x_4_q)))
 (let (($x4006 (not x_4_p)))
 (let (($x4008 (or $x4006 $x4007)))
 (and $x4008)))))
(assert
 (and true true))
(assert
 (=> x_4_p z_4_0_0))
(assert
 (=> x_4_p z_4_0_1))
(assert
 (=> x_4_p z_4_0_2))
(assert
 (=> x_4_p z_4_1_0))
(assert
 (=> x_4_p z_4_1_1))
(assert
 (=> x_4_p z_4_1_2))
(assert
 (=> x_4_p z_4_1_3))
(assert
 (=> x_4_p z_4_1_4))
(assert
 (=> x_4_p z_4_1_5))
(assert
 (=> x_4_p z_4_2_0))
(assert
 (=> x_4_p z_4_2_1))
(assert
 (=> x_4_p z_4_2_2))
(assert
 (=> x_4_p z_4_2_3))
(assert
 (let (($x4054 (not z_4_3_0)))
 (=> x_4_p $x4054)))
(assert
 (=> x_4_p z_4_3_1))
(assert
 (=> x_4_p z_4_3_2))
(assert
 (=> x_4_p z_4_4_0))
(assert
 (=> x_4_p z_4_4_1))
(assert
 (=> x_4_p z_4_4_2))
(assert
 (=> x_4_p z_4_4_3))
(assert
 (=> x_4_p z_4_4_4))
(assert
 (=> x_4_p z_4_4_5))
(assert
 (let (($x4073 (not z_4_5_0)))
 (=> x_4_p $x4073)))
(assert
 (let (($x4076 (not z_4_5_1)))
 (=> x_4_p $x4076)))
(assert
 (=> x_4_p z_4_5_2))
(assert
 (=> x_4_p z_4_5_3))
(assert
 (=> x_4_p z_4_6_0))
(assert
 (=> x_4_p z_4_6_1))
(assert
 (=> x_4_p z_4_6_2))
(assert
 (=> x_4_p z_4_7_0))
(assert
 (let (($x4091 (not z_4_7_1)))
 (=> x_4_p $x4091)))
(assert
 (=> x_4_p z_4_7_2))
(assert
 (=> x_4_p z_4_7_3))
(assert
 (=> x_4_p z_4_7_4))
(assert
 (=> x_4_p z_4_7_5))
(assert
 (=> x_4_p z_4_7_6))
(assert
 (=> x_4_p z_4_8_0))
(assert
 (=> x_4_p z_4_8_1))
(assert
 (=> x_4_p z_4_8_2))
(assert
 (=> x_4_p z_4_9_0))
(assert
 (let (($x4112 (not z_4_9_1)))
 (=> x_4_p $x4112)))
(assert
 (=> x_4_p z_4_9_2))
(assert
 (let (($x4117 (not z_4_10_0)))
 (=> x_4_p $x4117)))
(assert
 (=> x_4_p z_4_10_1))
(assert
 (=> x_4_p z_4_10_2))
(assert
 (=> x_4_p z_4_10_3))
(assert
 (=> x_4_p z_4_10_4))
(assert
 (let (($x4128 (not z_4_10_5)))
 (=> x_4_p $x4128)))
(assert
 (=> x_4_p z_4_11_0))
(assert
 (=> x_4_p z_4_11_1))
(assert
 (=> x_4_p z_4_11_2))
(assert
 (let (($x4137 (not z_4_11_3)))
 (=> x_4_p $x4137)))
(assert
 (let (($x4140 (not z_4_11_4)))
 (=> x_4_p $x4140)))
(assert
 (let (($x4143 (not z_4_11_5)))
 (=> x_4_p $x4143)))
(assert
 (let (($x4146 (not z_4_12_0)))
 (=> x_4_p $x4146)))
(assert
 (=> x_4_p z_4_12_1))
(assert
 (let (($x4151 (not z_4_12_2)))
 (=> x_4_p $x4151)))
(assert
 (let (($x4154 (not z_4_12_3)))
 (=> x_4_p $x4154)))
(assert
 (let (($x4157 (not z_4_12_4)))
 (=> x_4_p $x4157)))
(assert
 (=> x_4_p z_4_12_5))
(assert
 (let (($x4162 (not z_4_13_0)))
 (=> x_4_p $x4162)))
(assert
 (let (($x4165 (not z_4_13_1)))
 (=> x_4_p $x4165)))
(assert
 (=> x_4_p z_4_13_2))
(assert
 (let (($x4170 (not z_4_13_3)))
 (=> x_4_p $x4170)))
(assert
 (let (($x4173 (not z_4_13_4)))
 (=> x_4_p $x4173)))
(assert
 (=> x_4_p z_4_13_5))
(assert
 (let (($x4178 (not z_4_13_6)))
 (=> x_4_p $x4178)))
(assert
 (let (($x4181 (not z_4_13_7)))
 (=> x_4_p $x4181)))
(assert
 (let (($x4184 (not z_4_14_0)))
 (=> x_4_p $x4184)))
(assert
 (let (($x4187 (not z_4_14_1)))
 (=> x_4_p $x4187)))
(assert
 (let (($x4190 (not z_4_14_2)))
 (=> x_4_p $x4190)))
(assert
 (let (($x4193 (not z_4_14_3)))
 (=> x_4_p $x4193)))
(assert
 (=> x_4_p z_4_15_0))
(assert
 (=> x_4_p z_4_15_1))
(assert
 (let (($x4200 (not z_4_15_2)))
 (=> x_4_p $x4200)))
(assert
 (let (($x4203 (not z_4_15_3)))
 (=> x_4_p $x4203)))
(assert
 (=> x_4_p z_4_15_4))
(assert
 (=> x_4_p z_4_16_0))
(assert
 (=> x_4_p z_4_16_1))
(assert
 (let (($x4212 (not z_4_16_2)))
 (=> x_4_p $x4212)))
(assert
 (let (($x4215 (not z_4_16_3)))
 (=> x_4_p $x4215)))
(assert
 (=> x_4_p z_4_16_4))
(assert
 (=> x_4_p z_4_17_0))
(assert
 (let (($x4222 (not z_4_17_1)))
 (=> x_4_p $x4222)))
(assert
 (let (($x4225 (not z_4_17_2)))
 (=> x_4_p $x4225)))
(assert
 (=> x_4_p z_4_17_3))
(assert
 (let (($x4230 (not z_4_17_4)))
 (=> x_4_p $x4230)))
(assert
 (let (($x4233 (not z_4_18_0)))
 (=> x_4_p $x4233)))
(assert
 (let (($x4236 (not z_4_18_1)))
 (=> x_4_p $x4236)))
(assert
 (let (($x4239 (not z_4_18_2)))
 (=> x_4_p $x4239)))
(assert
 (=> x_4_p z_4_18_3))
(assert
 (=> x_4_p z_4_19_0))
(assert
 (let (($x4246 (not z_4_19_1)))
 (=> x_4_p $x4246)))
(assert
 (let (($x4249 (not z_4_19_2)))
 (=> x_4_p $x4249)))
(assert
 (=> x_4_p z_4_19_3))
(assert
 (=> x_4_p z_4_19_4))
(assert
 (=> x_4_q z_4_0_0))
(assert
 (let (($x4258 (not z_4_0_1)))
 (=> x_4_q $x4258)))
(assert
 (=> x_4_q z_4_0_2))
(assert
 (=> x_4_q z_4_1_0))
(assert
 (let (($x4265 (not z_4_1_1)))
 (=> x_4_q $x4265)))
(assert
 (let (($x4268 (not z_4_1_2)))
 (=> x_4_q $x4268)))
(assert
 (=> x_4_q z_4_1_3))
(assert
 (=> x_4_q z_4_1_4))
(assert
 (let (($x4275 (not z_4_1_5)))
 (=> x_4_q $x4275)))
(assert
 (let (($x4278 (not z_4_2_0)))
 (=> x_4_q $x4278)))
(assert
 (=> x_4_q z_4_2_1))
(assert
 (=> x_4_q z_4_2_2))
(assert
 (let (($x4285 (not z_4_2_3)))
 (=> x_4_q $x4285)))
(assert
 (let (($x4054 (not z_4_3_0)))
 (=> x_4_q $x4054)))
(assert
 (=> x_4_q z_4_3_1))
(assert
 (let (($x4292 (not z_4_3_2)))
 (=> x_4_q $x4292)))
(assert
 (let (($x4295 (not z_4_4_0)))
 (=> x_4_q $x4295)))
(assert
 (=> x_4_q z_4_4_1))
(assert
 (let (($x4300 (not z_4_4_2)))
 (=> x_4_q $x4300)))
(assert
 (let (($x4303 (not z_4_4_3)))
 (=> x_4_q $x4303)))
(assert
 (=> x_4_q z_4_4_4))
(assert
 (let (($x4308 (not z_4_4_5)))
 (=> x_4_q $x4308)))
(assert
 (let (($x4073 (not z_4_5_0)))
 (=> x_4_q $x4073)))
(assert
 (let (($x4076 (not z_4_5_1)))
 (=> x_4_q $x4076)))
(assert
 (=> x_4_q z_4_5_2))
(assert
 (let (($x4317 (not z_4_5_3)))
 (=> x_4_q $x4317)))
(assert
 (=> x_4_q z_4_6_0))
(assert
 (let (($x4322 (not z_4_6_1)))
 (=> x_4_q $x4322)))
(assert
 (=> x_4_q z_4_6_2))
(assert
 (let (($x4327 (not z_4_7_0)))
 (=> x_4_q $x4327)))
(assert
 (let (($x4091 (not z_4_7_1)))
 (=> x_4_q $x4091)))
(assert
 (=> x_4_q z_4_7_2))
(assert
 (let (($x4334 (not z_4_7_3)))
 (=> x_4_q $x4334)))
(assert
 (=> x_4_q z_4_7_4))
(assert
 (let (($x4339 (not z_4_7_5)))
 (=> x_4_q $x4339)))
(assert
 (let (($x4342 (not z_4_7_6)))
 (=> x_4_q $x4342)))
(assert
 (let (($x4345 (not z_4_8_0)))
 (=> x_4_q $x4345)))
(assert
 (let (($x4348 (not z_4_8_1)))
 (=> x_4_q $x4348)))
(assert
 (=> x_4_q z_4_8_2))
(assert
 (let (($x4353 (not z_4_9_0)))
 (=> x_4_q $x4353)))
(assert
 (let (($x4112 (not z_4_9_1)))
 (=> x_4_q $x4112)))
(assert
 (=> x_4_q z_4_9_2))
(assert
 (=> x_4_q z_4_10_0))
(assert
 (=> x_4_q z_4_10_1))
(assert
 (=> x_4_q z_4_10_2))
(assert
 (=> x_4_q z_4_10_3))
(assert
 (=> x_4_q z_4_10_4))
(assert
 (let (($x4128 (not z_4_10_5)))
 (=> x_4_q $x4128)))
(assert
 (=> x_4_q z_4_11_0))
(assert
 (let (($x4374 (not z_4_11_1)))
 (=> x_4_q $x4374)))
(assert
 (=> x_4_q z_4_11_2))
(assert
 (let (($x4137 (not z_4_11_3)))
 (=> x_4_q $x4137)))
(assert
 (let (($x4140 (not z_4_11_4)))
 (=> x_4_q $x4140)))
(assert
 (=> x_4_q z_4_11_5))
(assert
 (let (($x4146 (not z_4_12_0)))
 (=> x_4_q $x4146)))
(assert
 (=> x_4_q z_4_12_1))
(assert
 (=> x_4_q z_4_12_2))
(assert
 (let (($x4154 (not z_4_12_3)))
 (=> x_4_q $x4154)))
(assert
 (let (($x4157 (not z_4_12_4)))
 (=> x_4_q $x4157)))
(assert
 (=> x_4_q z_4_12_5))
(assert
 (let (($x4162 (not z_4_13_0)))
 (=> x_4_q $x4162)))
(assert
 (let (($x4165 (not z_4_13_1)))
 (=> x_4_q $x4165)))
(assert
 (=> x_4_q z_4_13_2))
(assert
 (let (($x4170 (not z_4_13_3)))
 (=> x_4_q $x4170)))
(assert
 (let (($x4173 (not z_4_13_4)))
 (=> x_4_q $x4173)))
(assert
 (=> x_4_q z_4_13_5))
(assert
 (let (($x4178 (not z_4_13_6)))
 (=> x_4_q $x4178)))
(assert
 (=> x_4_q z_4_13_7))
(assert
 (=> x_4_q z_4_14_0))
(assert
 (=> x_4_q z_4_14_1))
(assert
 (=> x_4_q z_4_14_2))
(assert
 (let (($x4193 (not z_4_14_3)))
 (=> x_4_q $x4193)))
(assert
 (let (($x4421 (not z_4_15_0)))
 (=> x_4_q $x4421)))
(assert
 (let (($x4424 (not z_4_15_1)))
 (=> x_4_q $x4424)))
(assert
 (=> x_4_q z_4_15_2))
(assert
 (let (($x4203 (not z_4_15_3)))
 (=> x_4_q $x4203)))
(assert
 (=> x_4_q z_4_15_4))
(assert
 (=> x_4_q z_4_16_0))
(assert
 (=> x_4_q z_4_16_1))
(assert
 (let (($x4212 (not z_4_16_2)))
 (=> x_4_q $x4212)))
(assert
 (=> x_4_q z_4_16_3))
(assert
 (let (($x4441 (not z_4_16_4)))
 (=> x_4_q $x4441)))
(assert
 (let (($x4444 (not z_4_17_0)))
 (=> x_4_q $x4444)))
(assert
 (=> x_4_q z_4_17_1))
(assert
 (=> x_4_q z_4_17_2))
(assert
 (let (($x4451 (not z_4_17_3)))
 (=> x_4_q $x4451)))
(assert
 (let (($x4230 (not z_4_17_4)))
 (=> x_4_q $x4230)))
(assert
 (let (($x4233 (not z_4_18_0)))
 (=> x_4_q $x4233)))
(assert
 (=> x_4_q z_4_18_1))
(assert
 (let (($x4239 (not z_4_18_2)))
 (=> x_4_q $x4239)))
(assert
 (=> x_4_q z_4_18_3))
(assert
 (=> x_4_q z_4_19_0))
(assert
 (let (($x4246 (not z_4_19_1)))
 (=> x_4_q $x4246)))
(assert
 (=> x_4_q z_4_19_2))
(assert
 (=> x_4_q z_4_19_3))
(assert
 (let (($x4472 (not z_4_19_4)))
 (=> x_4_q $x4472)))
(assert
 (or x_4_p x_4_q))
(assert
 (let (($x4026 (not x_4_->)))
 (let (($x4024 (not x_4_U)))
 (let (($x4022 (not x_4_v)))
 (let (($x4020 (not x_4_&)))
 (let (($x4018 (not x_4_X)))
 (let (($x4016 (not x_4_!)))
 (let (($x4014 (not x_4_F)))
 (let (($x4012 (not x_4_G)))
 (and $x4012 $x4014 $x4016 $x4018 $x4020 $x4022 $x4024 $x4026))))))))))
(check-sat)

